&GLOBAL
  PROJECT S20Acetone
  RUN_TYPE ENERGY
  PREFERRED_DIAG_LIBRARY SL
  PRINT_LEVEL medium
&END GLOBAL
&FORCE_EVAL
  METHOD Quickstep
&PROPERTIES
  &TDDFPT
   KERNEL sTDA
   &sTDA
    FRACTION 0.25
   &END sTDA
   NSTATES 10
   MAX_ITER   100
   CONVERGENCE [eV] 1.0e-7
   RKS_TRIPLETS F
  &END TDDFPT
&END PROPERTIES
  &DFT
    &QS
      METHOD GPW
      EPS_DEFAULT 1.0E-17
      EPS_PGF_ORB 1.0E-20
    &END QS
    &SCF
      SCF_GUESS restart
      &OT
         PRECONDITIONER FULL_ALL
         MINIMIZER DIIS
      &END OT
      &OUTER_SCF
         MAX_SCF 900
         EPS_SCF 1.0E-7
      &END OUTER_SCF
      MAX_SCF 10
      EPS_SCF 1.0E-7
    &END SCF
    POTENTIAL_FILE_NAME POTENTIAL_UZH
    BASIS_SET_FILE_NAME BASIS_MOLOPT_UZH
    BASIS_SET_FILE_NAME BASIS_ccGRB_UZH
    BASIS_SET_FILE_NAME BASIS_ADMM_UZH
    &MGRID
      CUTOFF 800
      REL_CUTOFF 80
    &END MGRID
    &POISSON
       PERIODIC NONE
       POISSON_SOLVER WAVELET 
    &END
    &XC
     &XC_FUNCTIONAL PBE0
     &END XC_FUNCTIONAL
    &HF
        &MEMORY
          MAX_MEMORY 9000
          EPS_STORAGE_SCALING 0.1
        &END
      &END
    &END XC
  &END DFT
  &SUBSYS
    &CELL
      ABC [angstrom] 14.0 14.0 14.0
      PERIODIC NONE
    &END CELL
    &COORD
 C 0.000000 1.282877 -0.611721
 C 0.000000 -1.282877 -0.611721
 C 0.000000 0.000000 0.185210
 O 0.000000 0.000000 1.392088
 H 0.000000 2.133711 0.059851
 H -0.876575 1.319344 -1.256757
 H 0.876575 1.319344 -1.256757
 H 0.000000 -2.133711 0.059851
 H 0.876575 -1.319344 -1.256757
 H -0.876575 -1.319344 -1.256757
    &END COORD
    &TOPOLOGY
     &CENTER_COORDINATES T
     &END
    &END
    &KIND H 
 BASIS_SET ORB TZVP-MOLOPT-PBE0-GTH-q1
      POTENTIAL GTH-PBE0-q1
    &END KIND
    &KIND O 
 BASIS_SET ORB TZVP-MOLOPT-PBE0-GTH-q6
      POTENTIAL GTH-PBE0-q6
    &END KIND
    &KIND C 
 BASIS_SET ORB TZVP-MOLOPT-PBE0-GTH-q4
      POTENTIAL GTH-PBE0-q4
    &END KIND
  &END SUBSYS
&END FORCE_EVAL
